experiments/mac_chuffed/detailed-output/inst-25-386405867.dzn

A = 8;
T = 106;
X = 22;
Y = 22;
Z = 3;
building = array2d(0..21, 0..21,
                   [0, 0, 0, 0, 0, 0, 0, 0, 0, 0, 0, 0, 0, 0, 0, 0, 0, 0, 0, 0, 0, 0,
                    0, 2, 0, 0, 0, 0, 0, 0, 1, 2, 2, 1, 0, 2, 2, 2, 2, 2, 2, 0, 1, 0,
                    0, 1, 0, 2, 2, 0, 1, 1, 1, 2, 2, 2, 2, 2, 0, 0, 0, 0, 2, 1, 0, 0,
                    0, 2, 2, 1, 0, 0, 0, 2, 1, 2, 2, 2, 0, 2, 2, 2, 2, 0, 2, 0, 1, 0,
                    0, 0, 2, 0, 1, 0, 1, 1, 0, 0, 0, 2, 0, 1, 2, 2, 1, 2, 2, 0, 1, 0,
                    0, 1, 0, 2, 2, 2, 2, 1, 2, 2, 0, 2, 2, 1, 0, 1, 1, 1, 1, 2, 2, 0,
                    0, 2, 0, 0, 2, 2, 0, 0, 0, 1, 0, 2, 1, 1, 1, 0, 1, 0, 2, 2, 0, 0,
                    0, 2, 2, 1, 2, 2, 1, 0, 2, 2, 0, 1, 0, 1, 2, 1, 2, 0, 2, 0, 0, 0,
                    0, 0, 0, 0, 1, 0, 1, 0, 1, 0, 0, 0, 0, 0, 0, 0, 0, 0, 0, 0, 0, 0,
                    0, 0, 0, 0, 0, 0, 0, 0, 0, 0, 0, 0, 0, 0, 0, 0, 0, 0, 0, 0, 0, 0,
                    0, 0, 0, 0, 0, 0, 0, 0, 0, 0, 0, 0, 0, 0, 0, 0, 0, 0, 0, 0, 0, 0,
                    0, 0, 0, 0, 0, 0, 0, 0, 0, 0, 0, 0, 0, 0, 0, 0, 0, 0, 0, 0, 0, 0,
                    0, 0, 0, 0, 0, 0, 0, 0, 0, 0, 0, 0, 0, 0, 0, 0, 0, 0, 0, 0, 0, 0,
                    0, 0, 0, 0, 0, 0, 0, 0, 0, 0, 0, 0, 0, 0, 0, 0, 0, 0, 0, 0, 0, 0,
                    0, 0, 0, 0, 0, 0, 0, 0, 0, 0, 0, 0, 0, 0, 0, 0, 0, 0, 0, 0, 0, 0,
                    0, 0, 0, 0, 0, 0, 0, 0, 0, 0, 0, 0, 0, 0, 0, 0, 0, 0, 0, 0, 0, 0,
                    0, 0, 0, 0, 0, 0, 0, 0, 0, 0, 0, 0, 0, 0, 0, 0, 0, 0, 0, 0, 0, 0,
                    0, 0, 0, 0, 0, 0, 0, 0, 0, 0, 0, 0, 0, 0, 0, 0, 0, 0, 0, 0, 0, 0,
                    0, 0, 0, 0, 0, 0, 0, 0, 0, 0, 0, 0, 0, 0, 0, 0, 0, 0, 0, 0, 0, 0,
                    0, 0, 0, 0, 0, 0, 0, 0, 0, 0, 0, 0, 0, 0, 0, 0, 0, 0, 0, 0, 0, 0,
                    0, 0, 0, 0, 0, 0, 0, 0, 0, 0, 0, 0, 0, 0, 0, 0, 0, 0, 0, 0, 0, 0,
                    0, 0, 0, 0, 0, 0, 0, 0, 0, 0, 0, 0, 0, 0, 0, 0, 0, 0, 0, 0, 0, 0]);
