experiments/vl_chuffed/detailed-output/inst-25-386405867.param
language Essence 1.3

letting class be function(1 --> 1, 2 --> 1, 3 --> 1, 4 --> 1, 5 --> 1)
letting deck_length be 9
letting deck_width be 87
letting length be function(1 --> 8, 2 --> 3, 3 --> 2, 4 --> 1, 5 --> 1)
letting n_classes be 1
letting n_containers be 5
letting separation be function()
letting width be function(1 --> 7, 2 --> 16, 3 --> 30, 4 --> 49, 5 --> 6)
